46 68
89 72
87 139
20 56
110 60
51 137
67 125
58 107
117 80
116 110
107 146
31 52
8 85
22 147
46 26
122 21
47 123
50 98
13 33
102 93
127 97
80 60
39 110
14 115
70 98
57 118
125 137
123 45
134 78
138 27
90 85
90 36
106 30
145 63
93 129
108 104
42 52
74 41
132 45
5 46
20 77